data;

param n:=29;
param p:=3;
param r:=[1] 0 [2] 1 [3] 5 [4] 7 [5] 9 [6] 6 [7] 9 [8] 10 [9] 6 [10] 0 [11] 0 [12] 5 [13] 12 [14] 38 [15] 0 [16] 41 [17] 19 [18] 35 [19] 39 [20] 42 [21] 42 [22] 20 [23] 33 [24] 47 [25] 13 [26] 55 [27] 13 [28] 78 [29] 69 ;
param w:=[1] 53 [2] 73 [3] 39 [4] 17 [5] 28 [6] 3 [7] 36 [8] 44 [9] 63 [10] 92 [11] 80 [12] 67 [13] 49 [14] 84 [15] 18 [16] 31 [17] 8 [18] 30 [19] 84 [20] 10 [21] 13 [22] 22 [23] 81 [24] 80 [25] 15 [26] 39 [27] 21 [28] 90 [29] 71 ;

end;
